(declare-fun a_ack!22 () (_ BitVec 64))
(declare-fun FPCHECK_FMUL_ACCURACY
             ((_ FloatingPoint 11 53) (_ FloatingPoint 11 53))
             Bool)
(assert (not (fp.eq ((_ to_fp 11 53) a_ack!22) ((_ to_fp 11 53) #xc000000000000000))))
(assert (FPCHECK_FMUL_ACCURACY
  (fp.mul roundNearestTiesToEven
          ((_ to_fp 11 53) #x3fe0000000000000)
          (fp.add roundNearestTiesToEven
                  ((_ to_fp 11 53) #x4000000000000000)
                  ((_ to_fp 11 53) a_ack!22)))
  (fp.add roundNearestTiesToEven
          ((_ to_fp 11 53) #x3ff0000000000000)
          ((_ to_fp 11 53) a_ack!22))))

(check-sat)
(exit)
